NAME : Instance 36
COMMENT : Comment 36
TYPE : TSP
DIMENSION: 30
EDGE_WEIGHT_TYPE : EUC_2D
NODE_COORD_SECTION
  1 621 952
  2 421 1073
  3 1848 197
  4 174 1219
  5 1888 1931
  6 1454 1526
  7 1035 711
  8 970 1285
  9 1519 1912
  10 1845 736
  11 797 1160
  12 201 509
  13 1973 1917
  14 199 242
  15 1845 1673
  16 46 1743
  17 1001 881
  18 895 416
  19 992 244
  20 1139 928
  21 307 220
  22 1330 1953
  23 357 1055
  24 1360 1162
  25 306 1604
  26 594 185
  27 470 1038
  28 1950 880
  29 1862 1755
  30 212 1457
EOF
